; Options: -in -smt2
(set-option :produce-unsat-assumptions true)

(declare-fun start!2965 () Bool)

(assert start!2965)

(declare-fun b_free!31 () Bool)

(declare-fun b_next!31 () Bool)

(assert (=> start!2965 (= b_free!31 (not b_next!31))))

(declare-fun tp!47 () Bool)

(declare-fun b_and!183 () Bool)

(assert (=> start!2965 (= tp!47 b_and!183)))

(declare-fun b!16580 () Bool)

(declare-fun res!13133 () Bool)

(declare-fun e!9135 () Bool)

(assert (=> b!16580 (=> (not res!13133) (not e!9135))))

(declare-fun P!6 () Int)

(declare-datatypes ((array!1370 0))(
  ( (array!1371 (arr!602 (Array (_ BitVec 32) (_ BitVec 32))) (size!602 (_ BitVec 32))) )
))
(declare-fun a!13 () array!1370)

(declare-fun dynLambda!54 (Int (_ BitVec 32)) Bool)

(assert (=> b!16580 (= res!13133 (dynLambda!54 P!6 (select (arr!602 a!13) #b00000000000000000000000000000100)))))

(declare-fun b!16581 () Bool)

(declare-fun res!13135 () Bool)

(assert (=> b!16581 (=> (not res!13135) (not e!9135))))

(assert (=> b!16581 (= res!13135 (dynLambda!54 P!6 (select (arr!602 a!13) #b00000000000000000000000000000101)))))

(declare-fun b!16582 () Bool)

(declare-fun res!13130 () Bool)

(assert (=> b!16582 (=> (not res!13130) (not e!9135))))

(assert (=> b!16582 (= res!13130 (dynLambda!54 P!6 (select (arr!602 a!13) #b00000000000000000000000000001001)))))

(declare-fun b!16583 () Bool)

(declare-fun res!13137 () Bool)

(assert (=> b!16583 (=> (not res!13137) (not e!9135))))

(assert (=> b!16583 (= res!13137 (dynLambda!54 P!6 (select (arr!602 a!13) #b00000000000000000000000000001000)))))

(declare-fun b!16584 () Bool)

(declare-fun res!13134 () Bool)

(assert (=> b!16584 (=> (not res!13134) (not e!9135))))

(assert (=> b!16584 (= res!13134 (dynLambda!54 P!6 (select (arr!602 a!13) #b00000000000000000000000000000000)))))

(declare-fun b!16586 () Bool)

(declare-fun res!13139 () Bool)

(assert (=> b!16586 (=> (not res!13139) (not e!9135))))

(assert (=> b!16586 (= res!13139 (dynLambda!54 P!6 (select (arr!602 a!13) #b00000000000000000000000000000110)))))

(declare-fun b!16587 () Bool)

(declare-fun res!13131 () Bool)

(assert (=> b!16587 (=> (not res!13131) (not e!9135))))

(assert (=> b!16587 (= res!13131 (dynLambda!54 P!6 (select (arr!602 a!13) #b00000000000000000000000000001010)))))

(declare-fun b!16588 () Bool)

(declare-fun res!13129 () Bool)

(assert (=> b!16588 (=> (not res!13129) (not e!9135))))

(assert (=> b!16588 (= res!13129 (dynLambda!54 P!6 (select (arr!602 a!13) #b00000000000000000000000000000011)))))

(declare-fun b!16589 () Bool)

(declare-fun res!13128 () Bool)

(assert (=> b!16589 (=> (not res!13128) (not e!9135))))

(assert (=> b!16589 (= res!13128 (dynLambda!54 P!6 (select (arr!602 a!13) #b00000000000000000000000000001011)))))

(declare-fun b!16590 () Bool)

(declare-fun res!13138 () Bool)

(assert (=> b!16590 (=> (not res!13138) (not e!9135))))

(assert (=> b!16590 (= res!13138 (dynLambda!54 P!6 (select (arr!602 a!13) #b00000000000000000000000000000001)))))

(declare-fun b!16585 () Bool)

(declare-fun res!13140 () Bool)

(assert (=> b!16585 (=> (not res!13140) (not e!9135))))

(assert (=> b!16585 (= res!13140 (dynLambda!54 P!6 (select (arr!602 a!13) #b00000000000000000000000000000111)))))

(declare-fun res!13132 () Bool)

(assert (=> start!2965 (=> (not res!13132) (not e!9135))))

(assert (=> start!2965 (= res!13132 (= (size!602 a!13) #b00000000000000000000000000010100))))

(assert (=> start!2965 e!9135))

(declare-fun array_inv!550 (array!1370) Bool)

(assert (=> start!2965 (array_inv!550 a!13)))

(assert (=> start!2965 tp!47))

(declare-fun b!16591 () Bool)

(declare-fun res!13136 () Bool)

(assert (=> b!16591 (=> (not res!13136) (not e!9135))))

(assert (=> b!16591 (= res!13136 (dynLambda!54 P!6 (select (arr!602 a!13) #b00000000000000000000000000000010)))))

(declare-fun b!16592 () Bool)

(assert (=> b!16592 (= e!9135 (bvsge #b00000000000000000000000000001100 (size!602 a!13)))))

(assert (= (and start!2965 res!13132) b!16584))

(assert (= (and b!16584 res!13134) b!16590))

(assert (= (and b!16590 res!13138) b!16591))

(assert (= (and b!16591 res!13136) b!16588))

(assert (= (and b!16588 res!13129) b!16580))

(assert (= (and b!16580 res!13133) b!16581))

(assert (= (and b!16581 res!13135) b!16586))

(assert (= (and b!16586 res!13139) b!16585))

(assert (= (and b!16585 res!13140) b!16583))

(assert (= (and b!16583 res!13137) b!16582))

(assert (= (and b!16582 res!13130) b!16587))

(assert (= (and b!16587 res!13131) b!16589))

(assert (= (and b!16589 res!13128) b!16592))

(declare-fun b_lambda!6733 () Bool)

(assert (=> (not b_lambda!6733) (not b!16584)))

(declare-fun t!343 () Bool)

(declare-fun tb!153 () Bool)

(assert (=> (and start!2965 (= P!6 P!6) t!343) tb!153))

(declare-fun result!153 () Bool)

(assert (=> tb!153 (= result!153 true)))

(assert (=> b!16584 t!343))

(declare-fun b_and!185 () Bool)

(assert (= b_and!183 (and (=> t!343 result!153) b_and!185)))

(declare-fun b_lambda!6735 () Bool)

(assert (=> (not b_lambda!6735) (not b!16583)))

(declare-fun t!345 () Bool)

(declare-fun tb!155 () Bool)

(assert (=> (and start!2965 (= P!6 P!6) t!345) tb!155))

(declare-fun result!155 () Bool)

(assert (=> tb!155 (= result!155 true)))

(assert (=> b!16583 t!345))

(declare-fun b_and!187 () Bool)

(assert (= b_and!185 (and (=> t!345 result!155) b_and!187)))

(declare-fun b_lambda!6737 () Bool)

(assert (=> (not b_lambda!6737) (not b!16581)))

(declare-fun t!347 () Bool)

(declare-fun tb!157 () Bool)

(assert (=> (and start!2965 (= P!6 P!6) t!347) tb!157))

(declare-fun result!157 () Bool)

(assert (=> tb!157 (= result!157 true)))

(assert (=> b!16581 t!347))

(declare-fun b_and!189 () Bool)

(assert (= b_and!187 (and (=> t!347 result!157) b_and!189)))

(declare-fun b_lambda!6739 () Bool)

(assert (=> (not b_lambda!6739) (not b!16591)))

(declare-fun t!349 () Bool)

(declare-fun tb!159 () Bool)

(assert (=> (and start!2965 (= P!6 P!6) t!349) tb!159))

(declare-fun result!159 () Bool)

(assert (=> tb!159 (= result!159 true)))

(assert (=> b!16591 t!349))

(declare-fun b_and!191 () Bool)

(assert (= b_and!189 (and (=> t!349 result!159) b_and!191)))

(declare-fun b_lambda!6741 () Bool)

(assert (=> (not b_lambda!6741) (not b!16587)))

(declare-fun t!351 () Bool)

(declare-fun tb!161 () Bool)

(assert (=> (and start!2965 (= P!6 P!6) t!351) tb!161))

(declare-fun result!161 () Bool)

(assert (=> tb!161 (= result!161 true)))

(assert (=> b!16587 t!351))

(declare-fun b_and!193 () Bool)

(assert (= b_and!191 (and (=> t!351 result!161) b_and!193)))

(declare-fun b_lambda!6743 () Bool)

(assert (=> (not b_lambda!6743) (not b!16580)))

(declare-fun t!353 () Bool)

(declare-fun tb!163 () Bool)

(assert (=> (and start!2965 (= P!6 P!6) t!353) tb!163))

(declare-fun result!163 () Bool)

(assert (=> tb!163 (= result!163 true)))

(assert (=> b!16580 t!353))

(declare-fun b_and!195 () Bool)

(assert (= b_and!193 (and (=> t!353 result!163) b_and!195)))

(declare-fun b_lambda!6745 () Bool)

(assert (=> (not b_lambda!6745) (not b!16590)))

(declare-fun t!355 () Bool)

(declare-fun tb!165 () Bool)

(assert (=> (and start!2965 (= P!6 P!6) t!355) tb!165))

(declare-fun result!165 () Bool)

(assert (=> tb!165 (= result!165 true)))

(assert (=> b!16590 t!355))

(declare-fun b_and!197 () Bool)

(assert (= b_and!195 (and (=> t!355 result!165) b_and!197)))

(declare-fun b_lambda!6747 () Bool)

(assert (=> (not b_lambda!6747) (not b!16589)))

(declare-fun t!357 () Bool)

(declare-fun tb!167 () Bool)

(assert (=> (and start!2965 (= P!6 P!6) t!357) tb!167))

(declare-fun result!167 () Bool)

(assert (=> tb!167 (= result!167 true)))

(assert (=> b!16589 t!357))

(declare-fun b_and!199 () Bool)

(assert (= b_and!197 (and (=> t!357 result!167) b_and!199)))

(declare-fun b_lambda!6749 () Bool)

(assert (=> (not b_lambda!6749) (not b!16585)))

(declare-fun t!359 () Bool)

(declare-fun tb!169 () Bool)

(assert (=> (and start!2965 (= P!6 P!6) t!359) tb!169))

(declare-fun result!169 () Bool)

(assert (=> tb!169 (= result!169 true)))

(assert (=> b!16585 t!359))

(declare-fun b_and!201 () Bool)

(assert (= b_and!199 (and (=> t!359 result!169) b_and!201)))

(declare-fun b_lambda!6751 () Bool)

(assert (=> (not b_lambda!6751) (not b!16586)))

(declare-fun t!361 () Bool)

(declare-fun tb!171 () Bool)

(assert (=> (and start!2965 (= P!6 P!6) t!361) tb!171))

(declare-fun result!171 () Bool)

(assert (=> tb!171 (= result!171 true)))

(assert (=> b!16586 t!361))

(declare-fun b_and!203 () Bool)

(assert (= b_and!201 (and (=> t!361 result!171) b_and!203)))

(declare-fun b_lambda!6753 () Bool)

(assert (=> (not b_lambda!6753) (not b!16582)))

(declare-fun t!363 () Bool)

(declare-fun tb!173 () Bool)

(assert (=> (and start!2965 (= P!6 P!6) t!363) tb!173))

(declare-fun result!173 () Bool)

(assert (=> tb!173 (= result!173 true)))

(assert (=> b!16582 t!363))

(declare-fun b_and!205 () Bool)

(assert (= b_and!203 (and (=> t!363 result!173) b_and!205)))

(declare-fun b_lambda!6755 () Bool)

(assert (=> (not b_lambda!6755) (not b!16588)))

(declare-fun t!365 () Bool)

(declare-fun tb!175 () Bool)

(assert (=> (and start!2965 (= P!6 P!6) t!365) tb!175))

(declare-fun result!175 () Bool)

(assert (=> tb!175 (= result!175 true)))

(assert (=> b!16588 t!365))

(declare-fun b_and!207 () Bool)

(assert (= b_and!205 (and (=> t!365 result!175) b_and!207)))

(declare-fun m!24817 () Bool)

(assert (=> b!16589 m!24817))

(assert (=> b!16589 m!24817))

(declare-fun m!24819 () Bool)

(assert (=> b!16589 m!24819))

(declare-fun m!24821 () Bool)

(assert (=> b!16585 m!24821))

(assert (=> b!16585 m!24821))

(declare-fun m!24823 () Bool)

(assert (=> b!16585 m!24823))

(declare-fun m!24825 () Bool)

(assert (=> b!16586 m!24825))

(assert (=> b!16586 m!24825))

(declare-fun m!24827 () Bool)

(assert (=> b!16586 m!24827))

(declare-fun m!24829 () Bool)

(assert (=> b!16580 m!24829))

(assert (=> b!16580 m!24829))

(declare-fun m!24831 () Bool)

(assert (=> b!16580 m!24831))

(declare-fun m!24833 () Bool)

(assert (=> start!2965 m!24833))

(declare-fun m!24835 () Bool)

(assert (=> b!16590 m!24835))

(assert (=> b!16590 m!24835))

(declare-fun m!24837 () Bool)

(assert (=> b!16590 m!24837))

(declare-fun m!24839 () Bool)

(assert (=> b!16583 m!24839))

(assert (=> b!16583 m!24839))

(declare-fun m!24841 () Bool)

(assert (=> b!16583 m!24841))

(declare-fun m!24843 () Bool)

(assert (=> b!16584 m!24843))

(assert (=> b!16584 m!24843))

(declare-fun m!24845 () Bool)

(assert (=> b!16584 m!24845))

(declare-fun m!24847 () Bool)

(assert (=> b!16581 m!24847))

(assert (=> b!16581 m!24847))

(declare-fun m!24849 () Bool)

(assert (=> b!16581 m!24849))

(declare-fun m!24851 () Bool)

(assert (=> b!16591 m!24851))

(assert (=> b!16591 m!24851))

(declare-fun m!24853 () Bool)

(assert (=> b!16591 m!24853))

(declare-fun m!24855 () Bool)

(assert (=> b!16587 m!24855))

(assert (=> b!16587 m!24855))

(declare-fun m!24857 () Bool)

(assert (=> b!16587 m!24857))

(declare-fun m!24859 () Bool)

(assert (=> b!16588 m!24859))

(assert (=> b!16588 m!24859))

(declare-fun m!24861 () Bool)

(assert (=> b!16588 m!24861))

(declare-fun m!24863 () Bool)

(assert (=> b!16582 m!24863))

(assert (=> b!16582 m!24863))

(declare-fun m!24865 () Bool)

(assert (=> b!16582 m!24865))

(check-sat (not b_next!31) b_and!207 (not b_lambda!6733) (not b_lambda!6749) (not b_lambda!6755) (not b_lambda!6751) (not b_lambda!6739) (not b_lambda!6743) (not b_lambda!6735) (not b_lambda!6747) (not start!2965) (not b_lambda!6753) (not b_lambda!6745) (not b_lambda!6741) (not b_lambda!6737))
(check-sat b_and!207 (not b_next!31))
